
******************************************************************************
This program contains Ipopt, a library for large-scale nonlinear optimization.
 Ipopt is released as open source code under the Eclipse Public License (EPL).
         For more information visit http://projects.coin-or.org/Ipopt
******************************************************************************

This is Ipopt version 3.12.6, running with linear solver ma57.

Number of nonzeros in equality constraint Jacobian...:    23982
Number of nonzeros in inequality constraint Jacobian.:        0
Number of nonzeros in Lagrangian Hessian.............:     3003

Total number of variables............................:     8997
                     variables with only lower bounds:        0
                variables with lower and upper bounds:     3003
                     variables with only upper bounds:        0
Total number of equality constraints.................:     6000
Total number of inequality constraints...............:        0
        inequality constraints with only lower bounds:        0
   inequality constraints with lower and upper bounds:        0
        inequality constraints with only upper bounds:        0

iter    objective    inf_pr   inf_du lg(mu)  ||d||  lg(rg) alpha_du alpha_pr  ls
   0  0.0000000e+00 1.00e+03 0.00e+00  -1.0 0.00e+00    -  0.00e+00 0.00e+00   0
Reallocating memory for MA57: lfact (185837)
   1  1.1163078e+00 4.31e-13 1.37e-13  -1.0 2.26e+03    -  1.00e+00 1.00e+00h  1
   2  1.1160120e+00 4.11e-13 5.55e-17  -2.5 7.22e-01    -  1.00e+00 1.00e+00f  1
   3  1.1160033e+00 4.06e-13 2.13e-17  -3.8 1.49e-01    -  1.00e+00 1.00e+00h  1
   4  1.1160033e+00 4.23e-13 2.39e-17  -5.7 1.45e-03    -  1.00e+00 1.00e+00h  1
   5  1.1160033e+00 4.25e-13 2.35e-17  -8.6 6.51e-06    -  1.00e+00 1.00e+00h  1

Number of Iterations....: 5

                                   (scaled)                 (unscaled)
Objective...............:   1.1160032615650322e+00    1.1160032615650322e+00
Dual infeasibility......:   2.3522104945251920e-17    2.3522104945251920e-17
Constraint violation....:   4.2521541843143495e-13    4.2521541843143495e-13
Complementarity.........:   2.5060813091955957e-09    2.5060813091955957e-09
Overall NLP error.......:   2.5060813091955957e-09    2.5060813091955957e-09


Number of objective function evaluations             = 6
Number of objective gradient evaluations             = 6
Number of equality constraint evaluations            = 6
Number of inequality constraint evaluations          = 0
Number of equality constraint Jacobian evaluations   = 6
Number of inequality constraint Jacobian evaluations = 0
Number of Lagrangian Hessian evaluations             = 5
Total CPU secs in IPOPT (w/o function evaluations)   =      0.053
Total CPU secs in NLP function evaluations           =      0.007

EXIT: Optimal Solution Found.

************************ CUTEst statistics ************************


 Package used            :  IPOPT
 Problem                 :  UBH1      
 # variables             =            9009
 # constraints           =            6000
 # objective functions   =        0.1300000E+02
 # objective gradients   =        0.7000000E+01
 # objective Hessians    =        0.6000000E+01
 # Hessian-vector prdct  =        0.0000000E+00
 # constraints functions =        0.1400000E+02
 # constraints gradients =        0.8000000E+01
 # constraints Hessians  =        0.6000000E+01
 Exit code               =               0
 Final f                 =   0.1116003E+01
 Set up time             =            0.13 seconds
 Solve time              =            0.21 seconds


******************************************************************

System Time =       0.0619999990 s.
